NAME          DCAP_3_4_2_200_SS69
ROWS
 N  OBJ
 L  CON1
 L  CON2
 L  CON3
 L  CON4
 L  CON5
 L  CON6
 L  CON7
 L  CON8
 L  CON9
 L  CON10
 L  CON11
 L  CON12
 E  CON13
 E  CON14
 E  CON15
 E  CON16
 E  CON17
 E  CON18
 E  CON19
 E  CON20
COLUMNS
    x[1,1]    OBJ       6.180167      CON1      1.000000    
    x[1,1]    CON7      -1.000000     CON8      -1.000000   
    x[1,2]    OBJ       5.039546      CON2      1.000000    
    x[1,2]    CON8      -1.000000   
    x[2,1]    OBJ       6.732585      CON3      1.000000    
    x[2,1]    CON9      -1.000000     CON10     -1.000000   
    x[2,2]    OBJ       7.443064      CON4      1.000000    
    x[2,2]    CON10     -1.000000   
    x[3,1]    OBJ       6.563535      CON5      1.000000    
    x[3,1]    CON11     -1.000000     CON12     -1.000000   
    x[3,2]    OBJ       6.054841      CON6      1.000000    
    x[3,2]    CON12     -1.000000   
    MARKER    'MARKER'                'INTORG'
    u[1,1]    OBJ       48.076654     CON1      -1.000000   
    u[1,2]    OBJ       49.466655     CON2      -1.000000   
    u[2,1]    OBJ       49.996186     CON3      -1.000000   
    u[2,2]    OBJ       32.230043     CON4      -1.000000   
    u[3,1]    OBJ       20.066487     CON5      -1.000000   
    u[3,2]    OBJ       27.484319     CON6      -1.000000   
    y[1,1,1]  OBJ       5.408415      CON7      1.051187    
    y[1,1,1]  CON13     1.000000    
    y[1,1,2]  OBJ       8.460070      CON8      0.546211    
    y[1,1,2]  CON14     1.000000    
    y[1,2,1]  OBJ       6.458774      CON7      0.621011    
    y[1,2,1]  CON15     1.000000    
    y[1,2,2]  OBJ       6.882637      CON8      0.600452    
    y[1,2,2]  CON16     1.000000    
    y[1,3,1]  OBJ       8.826014      CON7      0.674131    
    y[1,3,1]  CON17     1.000000    
    y[1,3,2]  OBJ       5.095515      CON8      1.312248    
    y[1,3,2]  CON18     1.000000    
    y[1,4,1]  OBJ       9.461562      CON7      1.162529    
    y[1,4,1]  CON19     1.000000    
    y[1,4,2]  OBJ       8.759092      CON8      0.812346    
    y[1,4,2]  CON20     1.000000    
    y[2,1,1]  OBJ       8.817456      CON9      1.051187    
    y[2,1,1]  CON13     1.000000    
    y[2,1,2]  OBJ       9.258474      CON10     0.546211    
    y[2,1,2]  CON14     1.000000    
    y[2,2,1]  OBJ       5.230800      CON9      0.621011    
    y[2,2,1]  CON15     1.000000    
    y[2,2,2]  OBJ       6.217229      CON10     0.600452    
    y[2,2,2]  CON16     1.000000    
    y[2,3,1]  OBJ       8.805815      CON9      0.674131    
    y[2,3,1]  CON17     1.000000    
    y[2,3,2]  OBJ       5.758371      CON10     1.312248    
    y[2,3,2]  CON18     1.000000    
    y[2,4,1]  OBJ       6.909537      CON9      1.162529    
    y[2,4,1]  CON19     1.000000    
    y[2,4,2]  OBJ       8.036713      CON10     0.812346    
    y[2,4,2]  CON20     1.000000    
    y[3,1,1]  OBJ       8.910582      CON11     1.051187    
    y[3,1,1]  CON13     1.000000    
    y[3,1,2]  OBJ       9.230325      CON12     0.546211    
    y[3,1,2]  CON14     1.000000    
    y[3,2,1]  OBJ       6.911809      CON11     0.621011    
    y[3,2,1]  CON15     1.000000    
    y[3,2,2]  OBJ       9.337904      CON12     0.600452    
    y[3,2,2]  CON16     1.000000    
    y[3,3,1]  OBJ       6.254265      CON11     0.674131    
    y[3,3,1]  CON17     1.000000    
    y[3,3,2]  OBJ       7.343703      CON12     1.312248    
    y[3,3,2]  CON18     1.000000    
    y[3,4,1]  OBJ       8.863092      CON11     1.162529    
    y[3,4,1]  CON19     1.000000    
    y[3,4,2]  OBJ       5.218354      CON12     0.812346    
    y[3,4,2]  CON20     1.000000    
    z[1,1]    OBJ       935.480702    CON13     1.000000    
    z[1,2]    OBJ       534.546729    CON14     1.000000    
    z[2,1]    OBJ       663.384967    CON15     1.000000    
    z[2,2]    OBJ       945.915770    CON16     1.000000    
    z[3,1]    OBJ       563.192928    CON17     1.000000    
    z[3,2]    OBJ       882.595730    CON18     1.000000    
    z[4,1]    OBJ       612.321496    CON19     1.000000    
    z[4,2]    OBJ       766.701339    CON20     1.000000    
    MARKER    'MARKER'                 'INTEND'
RHS
    RHS       CON1      -0.000000     CON2      -0.000000   
    RHS       CON3      -0.000000     CON4      -0.000000   
    RHS       CON5      -0.000000     CON6      -0.000000   
    RHS       CON7      -0.000000     CON8      -0.000000   
    RHS       CON9      -0.000000     CON10     -0.000000   
    RHS       CON11     -0.000000     CON12     -0.000000   
    RHS       CON13     1.000000      CON14     1.000000    
    RHS       CON15     1.000000      CON16     1.000000    
    RHS       CON17     1.000000      CON18     1.000000    
    RHS       CON19     1.000000      CON20     1.000000    
BOUNDS
 BV BOUND     u[1,1]  
 BV BOUND     u[1,2]  
 BV BOUND     u[2,1]  
 BV BOUND     u[2,2]  
 BV BOUND     u[3,1]  
 BV BOUND     u[3,2]  
 BV BOUND     y[1,1,1]
 BV BOUND     y[1,1,2]
 BV BOUND     y[1,2,1]
 BV BOUND     y[1,2,2]
 BV BOUND     y[1,3,1]
 BV BOUND     y[1,3,2]
 BV BOUND     y[1,4,1]
 BV BOUND     y[1,4,2]
 BV BOUND     y[2,1,1]
 BV BOUND     y[2,1,2]
 BV BOUND     y[2,2,1]
 BV BOUND     y[2,2,2]
 BV BOUND     y[2,3,1]
 BV BOUND     y[2,3,2]
 BV BOUND     y[2,4,1]
 BV BOUND     y[2,4,2]
 BV BOUND     y[3,1,1]
 BV BOUND     y[3,1,2]
 BV BOUND     y[3,2,1]
 BV BOUND     y[3,2,2]
 BV BOUND     y[3,3,1]
 BV BOUND     y[3,3,2]
 BV BOUND     y[3,4,1]
 BV BOUND     y[3,4,2]
 BV BOUND     z[1,1]  
 BV BOUND     z[1,2]  
 BV BOUND     z[2,1]  
 BV BOUND     z[2,2]  
 BV BOUND     z[3,1]  
 BV BOUND     z[3,2]  
 BV BOUND     z[4,1]  
 BV BOUND     z[4,2]  
ENDATA
